RAW/CMTH/fspd-mid/CMT6H.vrp_seed-4.out
555.4302365	0.058	164.222
