RAW/CMTH/fspd-mid/CMT6H.vrp_seed-4.sol
Route #1: 18 4 47 46
Route #2: 5 49 10 39 33 45 15 44 37 12
Route #3: 27 48 8 26 7 43 24 23 6
Route #4: 17 42 19 40 41 13 25 14
Route #5: 32 11 16 29 21 50 34 30 9 38
Route #6: 2 20 35 36 3 28 31 22 1
Cost 555.430236